words_hard_train/3066.qaiger
aag 31 10 0 1 21
2
4
8
10
16
20
24
34
46
54
63
6 3 5
12 9 11
14 6 12
18 14 17
22 18 21
26 23 24
28 19 20
30 26 29
32 20 25
36 33 34
38 15 16
40 39 19
42 36 40
44 31 43
48 22 47
50 23 46
52 49 51
56 53 55
58 44 57
60 52 54
62 59 61
i0 1 x2[4]
i1 1 x2[3]
i2 1 x2[6]
i3 1 x2[5]
i4 1 x2[2]
i5 1 x2[1]
i6 2 y2[1]
i7 2 y2[0]
i8 1 x2[0]
i9 2 y2[2]
o0 bv[0]
c
simplified
  <=
    << 5
      2 y2
    add
      reverse
        1 x2
      invert
        1
