words_hard_train/3066.qaiger.qdimacs
p cnf 31 64
a 1 2 4 5 8 10 23 0
e 3 6 7 9 11 12 13 14 15 16 17 18 19 20 21 22 24 25 26 27 28 29 30 31 0
1 2 3 0
-1 -3 0
-2 -3 0
4 5 6 0
-4 -6 0
-5 -6 0
-3 -6 7 0
3 -7 0
6 -7 0
-7 8 9 0
7 -9 0
-8 -9 0
-9 10 11 0
9 -11 0
-10 -11 0
11 -12 13 0
-11 -13 0
12 -13 0
9 -10 14 0
-9 -14 0
10 -14 0
-13 14 15 0
13 -15 0
-14 -15 0
-10 12 16 0
10 -16 0
-12 -16 0
16 -17 18 0
-16 -18 0
17 -18 0
7 -8 19 0
-7 -19 0
8 -19 0
19 9 20 0
-19 -20 0
-9 -20 0
-18 -20 21 0
18 -21 0
20 -21 0
15 21 22 0
-15 -22 0
-21 -22 0
-11 23 24 0
11 -24 0
-23 -24 0
11 -23 25 0
-11 -25 0
23 -25 0
24 25 26 0
-24 -26 0
-25 -26 0
26 27 28 0
-26 -28 0
-27 -28 0
-22 28 29 0
22 -29 0
-28 -29 0
-26 -27 30 0
26 -30 0
27 -30 0
29 30 31 0
-29 -31 0
-30 -31 0
-31 0
